1512.78
0 65 53 16 23 42 73 28 67 0
0 18 24 49 63 4 27 52 14 17 0
0 70 60 10 32 3 41 74 48 30 6 0
0 58 72 56 43 22 71 36 47 5 45 34 0
0 1 62 15 57 39 55 44 51 46 8 19 35 0
0 38 11 66 59 54 13 2 0
0 37 69 61 64 33 40 31 26 68 0
0 21 20 29 50 25 9 12 7 75 0
